# This problem is an example from 
# Linear Optimization course WS-2020/2021 week-3.
# A solution with Excel solver can be found on Moodle.

param n := 3;
param m := 3;

param	C :=
		1	3
		2	2
		3	-1;
param	A:	1	2	3	:=
		1	1	3	1	
		2	-2	-3	1	
		3	-3	2	-1	;
param	B :=
		1	9
		2	-2
		3	-5;					